<number of tasks>
50

<cycle time>
1000

<order strength>
0.195


<task times>
1 245
2 84
3 480
4 501
5 483
6 253
7 156
8 147
9 249
10 225
11 340
12 39
13 36
14 49
15 64
16 37
17 162
18 100
19 128
20 278
21 130
22 170
23 91
24 351
25 264
26 375
27 81
28 178
29 481
30 106
31 413
32 450
33 422
34 198
35 49
36 308
37 159
38 323
39 69
40 194
41 106
42 151
43 49
44 37
45 119
46 87
47 440
48 507
49 80
50 277

<precedence relations>
1,7
2,8
3,6
3,9
3,48
4,10
4,22
5,11
6,12
7,13
8,14
9,18
10,17
11,15
11,16
11,19
12,22
13,20
14,21
15,22
17,23
17,25
18,25
18,50
19,22
19,24
20,26
21,27
22,30
22,46
23,28
23,29
24,32
25,31
25,33
26,35
27,36
28,37
29,34
29,39
30,38
32,41
32,46
32,48
33,40
34,42
35,45
36,46
37,43
38,44
41,45
42,48
43,47
44,49
45,50

<end>
